1 -1 -2 0
1 -3 4 0
1 -5 -6 0
1 -5 -7 0
1 -8 9 0
1 8 10 0
1 11 2 0
1 11 -12 0
1 -13 -10 0
1 13 5 0
1 -13 14 0
1 6 -15 0
1 -14 16 0
1 -4 6 0
1 -4 -14 0
1 -17 -3 0
1 -15 -18 0
1 19 -20 0
1 19 21 0
1 -16 22 0
1 16 23 0
1 20 16 0
1 -24 25 0
1 -26 -27 0
1 -28 29 0
1 -27 -30 0
1 12 2 0
1 -31 -10 0
1 -32 -33 0
1 34 35 0
1 34 36 0
1 34 -11 0
1 35 -37 0
1 35 -38 0
1 35 -12 0
1 -39 18 0
1 39 -31 0
1 -40 41 0
1 -36 42 0
1 36 41 0
1 43 44 0
1 -18 -45 0
1 -22 46 0
1 37 -15 0
1 37 35 0
1 37 -46 0
1 -47 -48 0
1 -45 37 0
1 45 -18 0
1 -45 32 0
1 -49 37 0
1 -50 42 0
1 -48 21 0
1 48 46 0
1 -51 -9 0
1 51 17 0
1 25 -24 0
1 25 -52 0
1 -7 25 0
1 7 22 0
1 -7 -53 0
1 -9 51 0
1 54 25 0
1 54 -55 0
1 54 -56 0
1 54 51 0
1 -46 -57 0
1 58 59 0
1 58 -60 0
1 -58 -53 0
1 53 24 0
1 53 -61 0
1 53 -21 0
1 -53 56 0
1 -62 63 0
1 -62 -64 0
1 60 65 0
1 -60 -66 0
1 -60 -14 0
1 59 60 0
1 63 -15 0
1 63 67 0
1 -63 -58 0
1 -63 68 0
1 -69 -70 0
1 -69 71 0
1 69 72 0
1 -73 -69 0
1 73 60 0
1 -65 -74 0
1 -65 72 0
1 -65 75 0
1 -76 75 0
1 75 65 0
1 -75 -77 0
1 72 -67 0
1 -72 -70 0
1 -78 79 0
1 -80 81 0
1 80 -82 0
1 -83 -84 0
1 83 85 0
1 83 80 0
1 86 -84 0
1 -79 87 0
1 88 -31 0
1 88 -89 0
1 33 -89 0
1 -85 90 0
1 -85 33 0
1 -85 89 0
1 89 30 0
1 -89 91 0
1 92 93 0
1 -92 -94 0
1 -95 96 0
1 -95 -91 0
1 95 -97 0
1 -95 -94 0
1 98 -28 0
1 -30 -99 0
1 100 41 0
1 -100 101 0
1 41 -102 0
1 41 -103 0
1 -90 -104 0
1 99 -91 0
1 -105 42 0
1 105 -106 0
1 42 106 0
1 42 -49 0
1 42 -51 0
1 -52 107 0
1 108 109 0
1 108 -110 0
1 111 41 0
1 111 -52 0
1 110 -64 0
1 110 112 0
1 102 113 0
1 -102 105 0
1 114 -50 0
1 114 -45 0
1 -55 115 0
1 -115 108 0
1 -107 -56 0
1 116 69 0
1 116 7 0
1 68 73 0
1 74 -117 0
1 74 118 0
1 -119 -120 0
1 -119 -121 0
1 -119 -122 0
1 120 55 0
1 122 -67 0
1 -122 120 0
1 -123 -124 0
1 -123 116 0
1 -123 -64 0
1 125 126 0
1 125 55 0
1 67 59 0
1 -66 -127 0
1 128 129 0
1 -118 -130 0
1 117 -74 0
1 127 -131 0
1 -127 -132 0
1 -133 66 0
1 -77 72 0
1 130 -134 0
1 129 135 0
1 136 -131 0
1 136 -137 0
1 -138 134 0
1 -134 139 0
1 -140 71 0
1 140 141 0
1 -142 139 0
1 142 130 0
1 -142 -72 0
1 142 -143 0
1 -144 130 0
1 -144 -145 0
1 -146 -82 0
1 146 -147 0
1 148 -147 0
1 -149 -150 0
1 149 -151 0
1 149 -152 0
1 -150 88 0
1 -150 153 0
1 154 -79 0
1 -154 155 0
1 154 -156 0
1 157 158 0
1 -157 159 0
1 160 -158 0
1 160 149 0
1 97 161 0
1 97 -157 0
1 84 -30 0
1 -84 -162 0
1 -101 -159 0
1 -101 163 0
1 159 155 0
1 159 101 0
1 -164 91 0
1 162 -159 0
1 91 165 0
1 91 166 0
1 -91 92 0
1 93 -95 0
1 -93 164 0
1 -167 168 0
1 -168 169 0
1 -168 170 0
1 -171 -167 0
1 166 159 0
1 170 -172 0
1 -163 91 0
1 173 -102 0
1 -173 99 0
1 174 96 0
1 -175 -176 0
1 175 177 0
1 176 -178 0
1 177 -179 0
1 -180 179 0
1 181 167 0
1 181 -176 0
1 -96 -182 0
1 -113 -116 0
1 -112 183 0
1 112 -184 0
1 185 178 0
1 -185 -121 0
1 -121 -183 0
1 121 -104 0
1 -183 185 0
1 -183 121 0
1 183 112 0
1 104 -176 0
1 -186 -103 0
1 -178 -175 0
1 187 -67 0
1 188 -189 0
1 -188 -107 0
1 -188 -115 0
1 -190 128 0
1 -191 -190 0
1 192 -190 0
1 192 -193 0
1 -124 194 0
1 -124 -195 0
1 126 -196 0
1 126 -77 0
1 126 -125 0
1 197 -198 0
1 197 -199 0
1 -197 -200 0
1 -132 200 0
1 194 -201 0
1 -195 124 0
1 -202 -132 0
1 -202 -203 0
1 204 136 0
1 -204 -131 0
1 -131 136 0
1 -131 118 0
1 131 -204 0
1 205 206 0
1 -201 -207 0
1 -208 -201 0
1 -208 209 0
1 -200 210 0
1 -200 137 0
1 -200 -211 0
1 -199 212 0
1 -199 -205 0
1 137 -213 0
1 137 208 0
1 214 215 0
1 214 216 0
1 -210 -217 0
1 210 -207 0
1 210 -218 0
1 -219 142 0
1 219 200 0
1 -207 -220 0
1 207 -205 0
1 -217 -214 0
1 217 -205 0
1 221 -205 0
1 220 222 0
1 223 -219 0
1 223 224 0
1 225 -139 0
1 225 226 0
1 -227 -139 0
1 228 222 0
1 -229 -222 0
1 -230 -231 0
1 -232 -230 0
1 -232 218 0
1 -222 233 0
1 -222 -134 0
1 -234 -228 0
1 -235 -236 0
1 237 -238 0
1 -237 -239 0
1 -240 241 0
1 -242 -235 0
1 -242 243 0
1 -241 -237 0
1 -244 -240 0
1 245 -246 0
1 245 -247 0
1 245 -248 0
1 245 244 0
1 249 -238 0
1 249 -150 0
1 -250 -148 0
1 -250 -251 0
1 252 -241 0
1 252 -250 0
1 253 249 0
1 -253 -152 0
1 -253 237 0
1 239 254 0
1 -239 -152 0
1 -238 -255 0
1 238 -249 0
1 -251 -252 0
1 251 249 0
1 251 256 0
1 -254 253 0
1 -257 160 0
1 257 239 0
1 258 259 0
1 -258 -257 0
1 -260 169 0
1 -260 -261 0
1 260 262 0
1 -262 169 0
1 -262 -260 0
1 -263 254 0
1 -264 265 0
1 -158 264 0
1 -158 -157 0
1 266 267 0
1 -266 -268 0
1 269 -266 0
1 -269 -270 0
1 -268 271 0
1 268 -266 0
1 -272 169 0
1 272 -158 0
1 -272 264 0
1 265 272 0
1 265 264 0
1 172 273 0
1 -172 -170 0
1 274 275 0
1 -271 276 0
1 277 278 0
1 -277 -271 0
1 -279 280 0
1 279 271 0
1 279 182 0
1 281 282 0
1 281 271 0
1 281 -172 0
1 280 -278 0
1 -280 -113 0
1 -184 -276 0
1 184 -166 0
1 -278 282 0
1 278 -179 0
1 -278 184 0
1 283 -284 0
1 -283 -162 0
1 283 285 0
1 -276 -286 0
1 179 -178 0
1 287 288 0
1 289 -290 0
1 289 171 0
1 291 292 0
1 288 -293 0
1 -288 294 0
1 295 287 0
1 295 -296 0
1 295 -293 0
1 295 294 0
1 -290 178 0
1 -290 -192 0
1 297 183 0
1 297 298 0
1 299 -192 0
1 -300 132 0
1 -298 -287 0
1 -298 -300 0
1 298 -293 0
1 -301 -302 0
1 301 303 0
1 -304 -305 0
1 -304 -306 0
1 307 -293 0
1 -308 -309 0
1 308 -298 0
1 310 -193 0
1 -310 311 0
1 -312 313 0
1 314 -315 0
1 -203 316 0
1 203 -317 0
1 216 193 0
1 313 318 0
1 313 210 0
1 313 -319 0
1 -320 -321 0
1 317 -322 0
1 319 -322 0
1 319 -212 0
1 319 317 0
1 -319 198 0
1 -319 -311 0
1 -316 -323 0
1 -316 216 0
1 -316 324 0
1 -193 -325 0
1 326 -221 0
1 326 -206 0
1 326 -141 0
1 -212 200 0
1 -327 221 0
1 -327 -328 0
1 322 -211 0
1 328 -194 0
1 -321 329 0
1 321 330 0
1 331 332 0
1 -331 211 0
1 -333 -334 0
1 226 -209 0
1 226 -335 0
1 209 336 0
1 -211 -331 0
1 -211 337 0
1 338 339 0
1 332 -340 0
1 -332 -331 0
1 -224 341 0
1 224 -335 0
1 -342 -218 0
1 -336 -343 0
1 337 344 0
1 343 -344 0
1 -343 345 0
1 344 346 0
1 347 221 0
1 347 348 0
1 347 -333 0
1 -347 -337 0
1 -349 -344 0
1 349 350 0
1 -233 -222 0
1 -346 351 0
1 350 352 0
1 353 -354 0
1 -353 -355 0
1 353 356 0
1 355 -354 0
1 -355 -357 0
1 -352 358 0
1 352 -351 0
1 -359 -360 0
1 361 -362 0
1 -361 -363 0
1 -361 351 0
1 351 -359 0
1 351 -361 0
1 351 -222 0
1 -362 -364 0
1 -365 366 0
1 367 368 0
1 -369 370 0
1 -371 372 0
1 -372 373 0
1 -372 374 0
1 -373 -369 0
1 375 -376 0
1 377 370 0
1 -378 -246 0
1 379 -380 0
1 379 -375 0
1 -376 -381 0
1 370 382 0
1 -243 -383 0
1 -243 -384 0
1 385 238 0
1 -386 -238 0
1 387 255 0
1 -387 -377 0
1 388 389 0
1 388 -390 0
1 -388 -243 0
1 388 377 0
1 -391 390 0
1 392 -253 0
1 -255 -387 0
1 255 -247 0
1 -255 -251 0
1 -267 -266 0
1 -267 384 0
1 -393 394 0
1 -395 -396 0
1 395 -397 0
1 -395 398 0
1 -399 244 0
1 -247 400 0
1 247 386 0
1 247 -245 0
1 247 -401 0
1 402 265 0
1 396 272 0
1 394 261 0
1 -403 -253 0
1 404 -403 0
1 -404 -405 0
1 404 -406 0
1 -404 407 0
1 404 -402 0
1 -408 396 0
1 -408 -397 0
1 -408 -394 0
1 256 400 0
1 256 -409 0
1 -406 -410 0
1 -406 -265 0
1 270 410 0
1 -270 -411 0
1 270 -412 0
1 -407 413 0
1 -261 -286 0
1 -414 -406 0
1 -414 415 0
1 414 -416 0
1 410 -417 0
1 -410 418 0
1 -419 -420 0
1 419 -421 0
1 -286 416 0
1 -422 423 0
1 -422 424 0
1 -425 413 0
1 425 -283 0
1 426 427 0
1 -428 -422 0
1 284 -429 0
1 -296 300 0
1 -430 306 0
1 424 -431 0
1 424 -425 0
1 432 -427 0
1 306 433 0
1 -434 -435 0
1 -434 436 0
1 434 285 0
1 -434 304 0
1 -437 -305 0
1 -437 438 0
1 436 -437 0
1 436 -439 0
1 -436 303 0
1 -436 -306 0
1 -303 309 0
1 305 -314 0
1 -305 440 0
1 305 301 0
1 439 -314 0
1 -439 -441 0
1 439 442 0
1 443 -444 0
1 443 -445 0
1 -443 439 0
1 -446 447 0
1 446 448 0
1 -446 -445 0
1 440 447 0
1 -440 -305 0
1 440 -449 0
1 315 450 0
1 451 -450 0
1 -324 452 0
1 -323 441 0
1 -453 323 0
1 -302 -451 0
1 -302 -324 0
1 -454 -329 0
1 454 316 0
1 -454 -317 0
1 -454 -319 0
1 -329 -455 0
1 -329 444 0
1 -329 -453 0
1 334 -330 0
1 -330 -456 0
1 -330 -302 0
1 457 330 0
1 452 -340 0
1 -452 334 0
1 -452 458 0
1 -455 -459 0
1 455 -454 0
1 460 -328 0
1 -460 -452 0
1 -460 461 0
1 340 462 0
1 340 336 0
1 -340 -463 0
1 -464 465 0
1 464 461 0
1 464 337 0
1 -466 -467 0
1 466 -334 0
1 466 464 0
1 -468 -469 0
1 339 -465 0
1 -470 335 0
1 -470 -471 0
1 470 472 0
1 -473 469 0
1 -463 -340 0
1 -463 -474 0
1 -475 354 0
1 -465 -470 0
1 -469 467 0
1 469 476 0
1 -469 473 0
1 477 463 0
1 345 352 0
1 354 478 0
1 479 470 0
1 479 480 0
1 -481 338 0
1 481 482 0
1 481 483 0
1 471 -484 0
1 -471 -485 0
1 486 -350 0
1 486 -356 0
1 356 350 0
1 -356 -487 0
1 -488 -489 0
1 490 478 0
1 490 -491 0
1 490 492 0
1 487 -354 0
1 478 356 0
1 493 -356 0
1 -493 494 0
1 -348 -490 0
1 495 -491 0
1 495 365 0
1 -366 478 0
1 -496 -492 0
1 -497 -498 0
1 -497 499 0
1 497 496 0
1 492 500 0
1 -492 491 0
1 492 -501 0
1 492 -502 0
1 -357 355 0
1 357 503 0
1 357 504 0
1 357 -505 0
1 357 -496 0
1 502 506 0
1 507 491 0
1 500 508 0
1 -509 510 0
1 499 511 0
1 508 -512 0
1 498 513 0
1 -498 508 0
1 514 515 0
1 514 516 0
1 517 518 0
1 517 -516 0
1 -517 -519 0
1 516 -514 0
1 516 520 0
1 521 -368 0
1 522 -520 0
1 522 -523 0
1 374 516 0
1 374 524 0
1 374 525 0
1 -374 526 0
1 527 374 0
1 -527 -525 0
1 519 528 0
1 529 530 0
1 -529 531 0
1 529 374 0
1 -529 522 0
1 383 -519 0
1 532 524 0
1 -533 -534 0
1 535 519 0
1 -536 537 0
1 -536 538 0
1 538 -539 0
1 -524 540 0
1 524 527 0
1 -524 541 0
1 542 388 0
1 -380 -543 0
1 380 528 0
1 -380 -391 0
1 -544 -545 0
1 544 388 0
1 546 -547 0
1 -543 548 0
1 534 542 0
1 -549 -540 0
1 549 -544 0
1 -549 -535 0
1 549 -550 0
1 549 -537 0
1 -549 551 0
1 389 -384 0
1 401 -543 0
1 401 -382 0
1 -401 552 0
1 547 553 0
1 547 -554 0
1 -547 -394 0
1 554 -389 0
1 554 378 0
1 -554 -555 0
1 -554 -547 0
1 -545 -548 0
1 -545 544 0
1 -545 389 0
1 556 557 0
1 412 -408 0
1 -412 -557 0
1 -412 -556 0
1 558 398 0
1 558 -555 0
1 -558 -553 0
1 555 -558 0
1 -555 553 0
1 557 423 0
1 557 401 0
1 -557 -559 0
1 -560 -555 0
1 561 391 0
1 561 -547 0
1 417 286 0
1 562 398 0
1 -418 -557 0
1 563 -417 0
1 563 -558 0
1 -563 564 0
1 -398 -555 0
1 -565 566 0
1 -567 -568 0
1 567 423 0
1 -567 -562 0
1 420 -569 0
1 -420 409 0
1 -570 569 0
1 571 423 0
1 572 573 0
1 574 -409 0
1 574 575 0
1 -409 415 0
1 573 576 0
1 433 -577 0
1 433 578 0
1 -433 -432 0
1 -579 -571 0
1 579 434 0
1 -579 -580 0
1 -579 -424 0
1 -581 582 0
1 581 583 0
1 581 584 0
1 584 585 0
1 584 -442 0
1 586 421 0
1 586 -585 0
1 -586 587 0
1 421 588 0
1 -421 -587 0
1 431 577 0
1 442 -589 0
1 582 581 0
1 582 -589 0
1 -582 -590 0
1 -582 442 0
1 582 -578 0
1 -591 -579 0
1 591 592 0
1 -578 447 0
1 578 431 0
1 578 -593 0
1 580 594 0
1 577 595 0
1 577 596 0
1 449 597 0
1 448 -449 0
1 -593 -440 0
1 447 -598 0
1 447 589 0
1 -590 599 0
1 590 447 0
1 590 -600 0
1 -598 -593 0
1 -598 601 0
1 -589 -602 0
1 597 603 0
1 445 -444 0
1 -445 454 0
1 -445 604 0
1 -444 605 0
1 444 -450 0
1 -444 445 0
1 606 607 0
1 -606 -608 0
1 -599 -330 0
1 -609 -610 0
1 609 -611 0
1 -607 -444 0
1 -612 -599 0
1 -612 -447 0
1 605 -613 0
1 605 -445 0
1 -614 -302 0
1 -614 -600 0
1 615 -455 0
1 -615 -616 0
1 -617 -615 0
1 -616 615 0
1 459 -458 0
1 618 -619 0
1 620 -615 0
1 -621 -458 0
1 -621 611 0
1 -622 -623 0
1 -467 -466 0
1 624 -462 0
1 624 465 0
1 -625 626 0
1 625 -627 0
1 625 -469 0
1 -628 -629 0
1 628 630 0
1 628 -483 0
1 -626 631 0
1 626 -482 0
1 -626 -483 0
1 632 -633 0
1 -474 634 0
1 -474 465 0
1 474 635 0
1 483 628 0
1 -482 626 0
1 482 483 0
1 -634 -482 0
1 -634 -636 0
1 -634 -627 0
1 634 494 0
1 -637 462 0
1 -637 638 0
1 635 -482 0
1 -635 -474 0
1 484 -639 0
1 484 640 0
1 484 -641 0
1 484 -476 0
1 642 -472 0
1 -494 -348 0
1 494 476 0
1 494 493 0
1 -494 627 0
1 494 643 0
1 640 -644 0
1 641 484 0
1 639 -638 0
1 639 644 0
1 -476 494 0
1 506 -502 0
1 -506 641 0
1 -505 645 0
1 -505 -480 0
1 503 646 0
1 503 -647 0
1 480 -648 0
1 -645 649 0
1 647 -650 0
1 -647 -485 0
1 -485 -506 0
1 -485 471 0
1 -651 652 0
1 651 646 0
1 651 -653 0
1 -513 654 0
1 -648 -508 0
1 -655 -503 0
1 -655 656 0
1 655 -513 0
1 655 -487 0
1 -646 648 0
1 646 -656 0
1 653 651 0
1 653 657 0
1 -657 658 0
1 659 655 0
1 -512 659 0
1 -660 646 0
1 654 -660 0
1 -654 -492 0
1 654 661 0
1 -662 663 0
1 664 -665 0
1 504 -666 0
1 -667 -668 0
1 -510 669 0
1 510 660 0
1 -510 670 0
1 -510 665 0
1 668 671 0
1 -668 498 0
1 -672 -673 0
1 -674 673 0
1 675 -676 0
1 677 678 0
1 -679 -515 0
1 680 -681 0
1 680 682 0
1 680 683 0
1 -680 673 0
1 680 684 0
1 678 673 0
1 683 -685 0
1 -683 -526 0
1 686 -684 0
1 676 684 0
1 -687 521 0
1 -530 -681 0
1 688 689 0
1 688 690 0
1 688 -691 0
1 -685 -681 0
1 -685 535 0
1 685 -692 0
1 693 531 0
1 -692 -693 0
1 -692 685 0
1 -692 -694 0
1 692 531 0
1 -689 -695 0
1 689 -685 0
1 689 526 0
1 -696 -689 0
1 696 -697 0
1 696 698 0
1 531 -693 0
1 531 -525 0
1 -528 -697 0
1 -528 690 0
1 528 699 0
1 528 -531 0
1 528 529 0
1 694 -690 0
1 700 693 0
1 -691 685 0
1 691 701 0
1 -691 541 0
1 -702 552 0
1 702 -703 0
1 -690 704 0
1 690 -688 0
1 -705 -685 0
1 541 691 0
1 -541 -524 0
1 541 389 0
1 -540 -691 0
1 540 -524 0
1 552 706 0
1 -552 534 0
1 -707 -539 0
1 -707 708 0
1 -709 -551 0
1 709 -707 0
1 -550 709 0
1 -551 -710 0
1 -551 711 0
1 -712 -382 0
1 712 713 0
1 712 714 0
1 -714 715 0
1 -714 -710 0
1 714 716 0
1 714 -555 0
1 710 536 0
1 -539 717 0
1 718 552 0
1 711 -719 0
1 711 525 0
1 711 720 0
1 -721 -545 0
1 -721 560 0
1 722 -723 0
1 -722 716 0
1 724 710 0
1 725 -721 0
1 -726 -727 0
1 -716 -728 0
1 716 721 0
1 729 -716 0
1 729 730 0
1 -568 719 0
1 -568 731 0
1 566 -732 0
1 733 576 0
1 -733 727 0
1 -733 -734 0
1 732 -724 0
1 576 409 0
1 -576 735 0
1 -576 -736 0
1 564 563 0
1 737 -738 0
1 737 -739 0
1 737 740 0
1 -741 579 0
1 741 742 0
1 -736 743 0
1 -736 -727 0
1 -736 744 0
1 736 -587 0
1 -743 -566 0
1 -743 741 0
1 735 566 0
1 735 745 0
1 -740 741 0
1 -575 574 0
1 -575 -736 0
1 -746 571 0
1 -587 421 0
1 -747 -748 0
1 747 -586 0
1 -739 749 0
1 739 595 0
1 738 -750 0
1 738 751 0
1 -738 -587 0
1 738 -737 0
1 -752 738 0
1 -752 -747 0
1 -752 751 0
1 585 -753 0
1 749 -754 0
1 749 -755 0
1 749 -580 0
1 749 756 0
1 -757 749 0
1 757 758 0
1 -757 -585 0
1 754 -759 0
1 -754 749 0
1 604 -589 0
1 604 -445 0
1 -604 760 0
1 -603 -756 0
1 603 -578 0
1 761 -760 0
1 762 763 0
1 -764 -603 0
1 756 -601 0
1 -755 -762 0
1 -755 -595 0
1 760 761 0
1 -760 421 0
1 600 -764 0
1 601 -598 0
1 765 -763 0
1 -765 611 0
1 -592 766 0
1 -592 767 0
1 -592 768 0
1 769 761 0
1 -594 762 0
1 594 -600 0
1 -763 770 0
1 763 -601 0
1 -613 771 0
1 766 772 0
1 766 592 0
1 -773 -602 0
1 773 774 0
1 775 -765 0
1 -602 -776 0
1 -602 589 0
1 771 770 0
1 -777 -467 0
1 777 -775 0
1 -777 619 0
1 -623 770 0
1 623 619 0
1 -778 779 0
1 778 780 0
1 778 610 0
1 -778 -619 0
1 781 775 0
1 -610 -633 0
1 -610 781 0
1 -610 -782 0
1 783 784 0
1 -783 -633 0
1 -785 -773 0
1 -786 781 0
1 786 -785 0
1 -633 -787 0
1 -633 -788 0
1 -633 -780 0
1 633 -789 0
1 -790 -783 0
1 790 -621 0
1 784 -791 0
1 784 483 0
1 792 793 0
1 792 482 0
1 -780 794 0
1 780 -795 0
1 -780 630 0
1 789 796 0
1 789 792 0
1 788 778 0
1 -788 789 0
1 788 -797 0
1 -630 -626 0
1 630 -635 0
1 -630 484 0
1 -631 798 0
1 -799 -800 0
1 799 -635 0
1 -799 643 0
1 -793 -620 0
1 -793 -638 0
1 791 799 0
1 -791 -801 0
1 802 -803 0
1 -802 -637 0
1 802 -800 0
1 802 476 0
1 638 637 0
1 804 -805 0
1 800 -806 0
1 -800 802 0
1 807 -647 0
1 -652 -808 0
1 652 -809 0
1 810 -485 0
1 -811 803 0
1 -809 652 0
1 -809 -812 0
1 -809 -804 0
1 813 -811 0
1 -813 805 0
1 -813 -814 0
1 813 815 0
1 816 652 0
1 -816 -805 0
1 816 -814 0
1 817 -809 0
1 650 645 0
1 650 -485 0
1 658 649 0
1 -815 -653 0
1 -815 818 0
1 815 819 0
1 820 -658 0
1 -818 -821 0
1 818 -641 0
1 822 823 0
1 822 -824 0
1 -822 814 0
1 -825 658 0
1 -825 -826 0
1 -827 828 0
1 827 -829 0
1 830 831 0
1 -830 832 0
1 -830 -504 0
1 830 -833 0
1 829 -834 0
1 -829 -835 0
1 -829 -815 0
1 -836 -835 0
1 837 -831 0
1 661 832 0
1 -671 -833 0
1 -671 838 0
1 839 -671 0
1 -839 -840 0
1 -833 -841 0
1 832 669 0
1 -840 -671 0
1 840 -842 0
1 -669 843 0
1 -669 844 0
1 669 -510 0
1 -845 832 0
1 845 833 0
1 -846 669 0
1 -844 -664 0
1 -847 -848 0
1 -849 -850 0
1 -851 -849 0
1 852 -853 0
1 -854 -849 0
1 855 849 0
1 -698 -856 0
1 -697 -689 0
1 -857 -858 0
1 -859 -677 0
1 -860 861 0
1 860 690 0
1 -860 -862 0
1 863 -864 0
1 862 683 0
1 865 -866 0
1 867 865 0
1 -868 -691 0
1 713 -708 0
1 -713 869 0
1 870 713 0
1 -870 -714 0
1 871 704 0
1 -871 -706 0
1 -871 -872 0
1 -873 874 0
1 -873 706 0
1 -869 -713 0
1 -869 875 0
1 -869 870 0
1 869 703 0
1 -876 -877 0
1 876 -715 0
1 -876 -878 0
1 876 -879 0
1 -880 881 0
1 880 882 0
1 880 -871 0
1 880 -720 0
1 880 877 0
1 877 -883 0
1 884 713 0
1 884 -885 0
1 878 -886 0
1 -719 701 0
1 719 -887 0
1 887 -710 0
1 888 -889 0
1 -888 716 0
1 882 -728 0
1 882 890 0
1 -882 720 0
1 882 -891 0
1 -892 -709 0
1 881 -893 0
1 -881 -894 0
1 881 889 0
1 -895 889 0
1 728 717 0
1 896 737 0
1 742 897 0
1 742 -731 0
1 -897 898 0
1 897 -889 0
1 -717 -888 0
1 -717 -742 0
1 -899 -900 0
1 -901 902 0
1 -903 -746 0
1 903 904 0
1 903 -733 0
1 903 -735 0
1 905 717 0
1 745 906 0
1 904 907 0
1 -908 751 0
1 -908 905 0
1 -909 907 0
1 910 735 0
1 911 -912 0
1 -911 735 0
1 -913 749 0
1 906 905 0
1 914 -915 0
1 914 -905 0
1 -916 911 0
1 916 731 0
1 -916 905 0
1 912 -917 0
1 -750 914 0
1 759 -738 0
1 759 -603 0
1 -915 918 0
1 915 -754 0
1 -919 914 0
1 744 919 0
1 -744 -759 0
1 -744 -750 0
1 -920 -921 0
1 -922 923 0
1 -923 -759 0
1 923 -924 0
1 925 918 0
1 -925 754 0
1 -925 -926 0
1 925 -757 0
1 927 -928 0
1 -921 929 0
1 -918 930 0
1 918 931 0
1 -931 -932 0
1 -928 924 0
1 -928 933 0
1 928 -934 0
1 930 -935 0
1 930 755 0
1 -930 -931 0
1 -930 -760 0
1 -936 -937 0
1 936 764 0
1 -774 -938 0
1 -774 -939 0
1 774 -940 0
1 774 -941 0
1 942 943 0
1 942 944 0
1 -935 -945 0
1 -935 -927 0
1 770 943 0
1 770 942 0
1 -770 941 0
1 779 -778 0
1 -946 947 0
1 946 -602 0
1 938 -770 0
1 -938 941 0
1 -941 -756 0
1 776 947 0
1 948 949 0
1 948 -785 0
1 -767 796 0
1 -767 -950 0
1 947 951 0
1 947 -797 0
1 -952 -953 0
1 952 -954 0
1 -955 -789 0
1 -796 -789 0
1 797 -949 0
1 797 782 0
1 956 947 0
1 956 957 0
1 -956 789 0
1 -958 -955 0
1 959 -956 0
1 -795 960 0
1 961 -788 0
1 961 -962 0
1 -961 -795 0
1 963 960 0
1 -963 957 0
1 -782 -960 0
1 957 964 0
1 -965 966 0
1 967 794 0
1 967 -968 0
1 969 970 0
1 969 971 0
1 794 -972 0
1 -794 -973 0
1 -794 -967 0
1 794 963 0
1 -974 975 0
1 974 -976 0
1 977 -978 0
1 -806 816 0
1 -970 968 0
1 973 979 0
1 -819 980 0
1 819 815 0
1 981 982 0
1 -981 -823 0
1 -983 -967 0
1 984 -791 0
1 -984 -819 0
1 968 806 0
1 -812 -809 0
1 -812 -822 0
1 -814 -981 0
1 -814 -825 0
1 -823 -827 0
1 -823 -985 0
1 -986 822 0
1 -979 -987 0
1 -979 973 0
1 988 -819 0
1 989 -982 0
1 821 979 0
1 990 -828 0
1 991 992 0
1 -993 843 0
1 993 842 0
1 993 835 0
1 994 995 0
1 985 995 0
1 -985 -996 0
1 843 -997 0
1 843 829 0
1 -998 -999 0
1 -998 -831 0
1 -998 993 0
1 -998 992 0
1 998 -1000 0
1 998 -1001 0
1 -842 -999 0
1 842 -840 0
1 -842 1002 0
1 1003 -992 0
1 -1003 -841 0
1 -841 1004 0
1 1005 -853 0
1 -1006 -834 0
1 -834 -998 0
1 -834 842 0
1 1007 998 0
1 -864 -1008 0
1 -1009 1010 0
1 -1011 873 0
1 1012 873 0
1 -1012 -1013 0
1 1012 1014 0
1 1013 1012 0
1 1008 1009 0
1 -886 866 0
1 872 878 0
1 -1015 1014 0
1 -1016 -866 0
1 -1017 863 0
1 -1018 1019 0
1 866 -1015 0
1 -883 874 0
1 -883 895 0
1 893 874 0
1 -1020 893 0
1 -1020 883 0
1 1021 -871 0
1 1021 -1022 0
1 874 1023 0
1 -875 -1024 0
1 891 -734 0
1 -891 901 0
1 890 881 0
1 -890 -899 0
1 890 -891 0
1 1025 -899 0
1 -1025 -1021 0
1 -1026 1020 0
1 -1026 -1027 0
1 -1026 -1021 0
1 1026 1025 0
1 1027 -891 0
1 -1028 1029 0
1 1030 -897 0
1 -1030 1031 0
1 1032 909 0
1 -1033 -1032 0
1 1031 -1034 0
1 1031 1030 0
1 1035 895 0
1 -907 -916 0
1 -907 -1031 0
1 -917 1036 0
1 917 -759 0
1 -917 908 0
1 -917 -1034 0
1 -917 1031 0
1 -1037 1038 0
1 1039 1040 0
1 1039 -1041 0
1 -1036 1039 0
1 1041 -1042 0
1 -1043 906 0
1 -1044 906 0
1 -1044 925 0
1 1045 -923 0
1 -1045 -1046 0
1 -1045 -929 0
1 -929 1047 0
1 929 1045 0
1 -929 1048 0
1 -1038 -1049 0
1 -1038 1050 0
1 1051 -1038 0
1 1047 1044 0
1 1047 1052 0
1 924 -1053 0
1 -1050 -1053 0
1 1049 -1054 0
1 1049 1055 0
1 934 -1056 0
1 934 1057 0
1 -934 1058 0
1 1059 932 0
1 -1059 924 0
1 -1060 924 0
1 -1053 1061 0
1 1053 912 0
1 -1053 1049 0
1 1053 1050 0
1 -932 933 0
1 933 -1055 0
1 1062 1063 0
1 1062 -935 0
1 -1062 1055 0
1 1063 1064 0
1 1063 -934 0
1 1055 920 0
1 -1055 1064 0
1 -1065 -1057 0
1 1065 1064 0
1 1057 1066 0
1 1067 939 0
1 -1068 1069 0
1 -1070 945 0
1 -1070 1071 0
1 -1070 1055 0
1 -1072 1071 0
1 -1072 -940 0
1 -1073 -1074 0
1 -1075 -1076 0
1 1077 -1078 0
1 1079 -940 0
1 -953 -1073 0
1 -1076 1080 0
1 1076 -1081 0
1 1076 -1082 0
1 1083 945 0
1 -1083 1075 0
1 -1084 -1070 0
1 1084 1072 0
1 -1084 -1085 0
1 1084 950 0
1 -945 1074 0
1 -945 -1083 0
1 -945 -953 0
1 -1086 -1070 0
1 1086 945 0
1 1086 -1072 0
1 -1086 -1087 0
1 950 -1088 0
1 950 -952 0
1 -950 -795 0
1 951 -1074 0
1 -1085 -1089 0
1 1090 959 0
1 1090 1081 0
1 -1088 -966 0
1 1088 -1091 0
1 1088 1085 0
1 -1081 -1076 0
1 1080 1071 0
1 -1092 951 0
1 1092 940 0
1 -1093 -1094 0
1 -1093 957 0
1 966 1094 0
1 -966 -1095 0
1 -1096 1097 0
1 1096 -1098 0
1 964 1094 0
1 964 1097 0
1 964 -1099 0
1 1094 -1100 0
1 -954 -1101 0
1 954 1085 0
1 1095 966 0
1 -1095 1096 0
1 -1095 -1102 0
1 975 1103 0
1 1104 -980 0
1 -1104 -1105 0
1 -1104 -1098 0
1 -980 -974 0
1 1099 -958 0
1 -1103 -975 0
1 -1098 -964 0
1 -1106 -1107 0
1 1108 812 0
1 1108 -974 0
1 -971 -1108 0
1 -1109 1110 0
1 1111 1112 0
1 1105 -980 0
1 1105 1113 0
1 -1105 -982 0
1 1105 1109 0
1 -1105 1104 0
1 -1114 -971 0
1 1115 1114 0
1 1116 989 0
1 -1117 -1118 0
1 -1110 -1119 0
1 -978 1120 0
1 -978 -1121 0
1 -996 -997 0
1 -996 1122 0
1 996 -1123 0
1 996 -985 0
1 1119 -1124 0
1 -1119 -994 0
1 995 987 0
1 -1125 -997 0
1 1125 995 0
1 -1122 1116 0
1 -1122 983 0
1 -1126 1127 0
1 1127 1128 0
1 -1129 1130 0
1 1129 1004 0
1 1129 985 0
1 1131 1132 0
1 -1131 -826 0
1 1133 -987 0
1 1124 -1129 0
1 1024 -866 0
1 -1134 1014 0
1 -1135 -874 0
1 -1135 -875 0
1 -1136 -1137 0
1 1136 1138 0
1 -1139 -1024 0
1 -1022 1140 0
1 1022 -1141 0
1 1023 -1142 0
1 -1137 1143 0
1 1137 -1141 0
1 1137 1136 0
1 -1144 1017 0
1 -1144 -1019 0
1 1144 -1145 0
1 1019 1146 0
1 1019 -1145 0
1 -1142 -1146 0
1 1142 1137 0
1 -1142 1145 0
1 1147 1148 0
1 -1029 -1148 0
1 -1149 -1143 0
1 1149 1150 0
1 -1149 -1151 0
1 -1040 -1152 0
1 1143 -1153 0
1 -1151 1154 0
1 1148 -1137 0
1 -1155 1040 0
1 1154 1044 0
1 1154 1156 0
1 1157 1158 0
1 -1157 -1045 0
1 1157 1041 0
1 1157 1151 0
1 -1159 -1160 0
1 -1158 -1161 0
1 -1162 1040 0
1 1162 -1163 0
1 1162 1058 0
1 1162 -1164 0
1 -1042 -1036 0
1 -1042 -924 0
1 1042 1162 0
1 -1042 1165 0
1 1166 1047 0
1 1166 -1162 0
1 1166 -1165 0
1 -1058 1167 0
1 -1058 -1168 0
1 1058 1169 0
1 1058 -1170 0
1 1171 1042 0
1 -1171 1172 0
1 1165 -1052 0
1 1165 1173 0
1 1174 1152 0
1 1174 -1042 0
1 1174 -1157 0
1 -1170 -1175 0
1 -1170 -1174 0
1 -1052 -1053 0
1 1052 -1173 0
1 1173 1051 0
1 -1173 -1052 0
1 -1061 -1053 0
1 1172 -1165 0
1 1168 -1176 0
1 1168 -1177 0
1 1178 1058 0
1 1179 1061 0
1 1179 1180 0
1 -1179 1058 0
1 1181 1066 0
1 1181 -1168 0
1 -1066 1182 0
1 1066 -1183 0
1 -1177 1057 0
1 -1177 1184 0
1 1185 -1177 0
1 1185 1064 0
1 1185 -1066 0
1 1186 -1066 0
1 1182 -1176 0
1 -1182 1187 0
1 1182 -1188 0
1 1189 -1190 0
1 1064 1191 0
1 1064 1069 0
1 -1078 -1190 0
1 1192 -1191 0
1 -1192 -1193 0
1 1190 1191 0
1 -1190 -1192 0
1 -1190 1194 0
1 -1190 -1059 0
1 1193 -1177 0
1 1195 1193 0
1 1196 945 0
1 -1196 -1197 0
1 1074 1086 0
1 1198 1191 0
1 -1199 1074 0
1 -1199 -1196 0
1 -1199 -1078 0
1 -1200 -1078 0
1 -1197 -1196 0
1 1201 1202 0
1 -1087 1199 0
1 -1087 944 0
1 1087 -1203 0
1 1204 1205 0
1 -1206 1207 0
1 -1206 -1203 0
1 1208 -1209 0
1 -1208 -1080 0
1 1209 -1204 0
1 1203 -1210 0
1 1203 -1206 0
1 1211 1209 0
1 1211 -1212 0
1 1213 1214 0
1 1215 -1106 0
1 -1215 -1216 0
1 1102 1217 0
1 -1218 -1091 0
1 -1218 -1219 0
1 1218 -1107 0
1 -1091 1213 0
1 1091 -1088 0
1 -1091 -1220 0
1 -1091 1221 0
1 1216 -1215 0
1 -1222 1223 0
1 1222 1224 0
1 -1222 1225 0
1 1226 -1227 0
1 1226 1225 0
1 -1223 1228 0
1 -1101 954 0
1 -1229 1230 0
1 -1229 -1231 0
1 -1229 -1227 0
1 -1229 -1232 0
1 -1123 -1233 0
1 -1120 -1223 0
1 -1234 1235 0
1 -1234 -1233 0
1 -1235 1132 0
1 1236 -1237 0
1 1237 -1226 0
1 -1128 -1130 0
1 1128 -1127 0
1 1128 1004 0
1 1128 1118 0
1 1238 1239 0
1 -1132 1112 0
1 1112 -1132 0
1 -1240 1238 0
1 1146 -1144 0
1 -1241 1242 0
1 1160 1243 0
1 -1244 1245 0
1 1244 -1242 0
1 -1242 -1146 0
1 -1243 -1146 0
1 -1246 1160 0
1 1246 -1243 0
1 -1247 1042 0
1 -1248 1247 0
1 1245 1249 0
1 1250 1251 0
1 1250 -1252 0
1 -1250 1253 0
1 1253 1175 0
1 1254 -1241 0
1 1255 -1142 0
1 -1255 -1256 0
1 1252 1052 0
1 -1252 1257 0
1 -1163 -1158 0
1 1175 -1061 0
1 -1175 1258 0
1 -1175 1174 0
1 1175 -1259 0
1 1259 1249 0
1 1259 -1164 0
1 1249 -1260 0
1 1249 1175 0
1 -1249 1245 0
1 1249 1163 0
1 -1257 1169 0
1 -1261 1262 0
1 -1263 -1179 0
1 1264 -1265 0
1 -1266 -1264 0
1 1266 1267 0
1 1266 -1265 0
1 1161 1266 0
1 -1164 1268 0
1 1164 1263 0
1 -1269 -1264 0
1 1262 -1270 0
1 -1262 1259 0
1 1180 1161 0
1 1271 1272 0
1 1271 1273 0
1 -1271 1171 0
1 -1271 -1180 0
1 1271 1266 0
1 1272 -1266 0
1 -1274 1275 0
1 1274 -1276 0
1 -1265 1180 0
1 -1265 1266 0
1 1277 1278 0
1 1188 1278 0
1 1273 -1279 0
1 -1278 -1280 0
1 -1281 -1282 0
1 -1281 -1283 0
1 1284 -1285 0
1 -1284 1273 0
1 -1284 -1188 0
1 1284 -1283 0
1 1284 1178 0
1 -1194 1286 0
1 1194 -1287 0
1 -1280 1288 0
1 1280 -1289 0
1 1280 -1197 0
1 1290 -1187 0
1 1290 1280 0
1 -1290 1197 0
1 -1279 -1286 0
1 -1291 -1187 0
1 -1187 -1273 0
1 1292 1207 0
1 -1292 -1289 0
1 1292 -1201 0
1 1202 -1293 0
1 1294 -1295 0
1 1294 1296 0
1 1294 1279 0
1 -1296 -1297 0
1 1296 -1205 0
1 1298 -1299 0
1 1298 1294 0
1 1298 1300 0
1 -1289 1202 0
1 -1289 -1294 0
1 -1301 -1202 0
1 -1301 1288 0
1 -1288 -1290 0
1 -1210 1214 0
1 1210 -1203 0
1 -1302 1210 0
1 -1302 -1303 0
1 -1304 1305 0
1 1306 -1304 0
1 -1306 1307 0
1 1295 1302 0
1 1295 -1219 0
1 -1308 1309 0
1 1224 1310 0
1 1224 1303 0
1 -1311 1312 0
1 1311 1313 0
1 -1305 -1310 0
1 1314 1304 0
1 1314 -1315 0
1 1312 -1230 0
1 1316 1219 0
1 1316 -1311 0
1 1231 -1217 0
1 -1221 -1312 0
1 1221 1216 0
1 1230 -1317 0
1 -1230 -1318 0
1 -1319 -1232 0
1 -1315 -1231 0
1 -1315 1232 0
1 1318 1221 0
1 -1320 -1314 0
1 1321 -1223 0
1 -1228 -1322 0
1 -1323 1132 0
1 -1323 1324 0
1 1325 -1230 0
1 -1324 -1323 0
1 -1324 -1216 0
1 1251 1326 0
1 1251 -1255 0
1 1256 1326 0
1 -1327 1267 0
1 1267 1328 0
1 -1267 1257 0
1 1326 -1329 0
1 -1326 1267 0
1 -1328 -1330 0
1 1331 1256 0
1 1332 1256 0
1 1333 1269 0
1 1333 -1334 0
1 1333 -1335 0
1 1334 1249 0
1 1336 -1269 0
1 -1330 -1326 0
1 -1337 -1336 0
1 1337 1334 0
1 -1338 1335 0
1 -1335 1338 0
1 1270 -1269 0
1 1270 1188 0
1 -1270 1262 0
1 -1270 1276 0
1 1339 1337 0
1 1339 1340 0
1 1341 1287 0
1 1260 1342 0
1 -1343 1270 0
1 -1287 -1344 0
1 -1345 -1346 0
1 -1345 -1274 0
1 -1345 1284 0
1 -1347 1348 0
1 -1340 1293 0
1 1349 -1275 0
1 -1350 1351 0
1 -1350 -1352 0
1 -1344 1275 0
1 1344 1347 0
1 -1344 -1287 0
1 -1344 1353 0
1 1354 -1355 0
1 1354 -1356 0
1 1354 -1294 0
1 1354 1291 0
1 -1355 1297 0
1 1355 -1357 0
1 -1355 -1358 0
1 -1359 1360 0
1 -1359 -1297 0
1 -1359 1293 0
1 -1361 -1355 0
1 1362 1355 0
1 -1358 -1300 0
1 1363 1278 0
1 -1356 -1354 0
1 1364 -1365 0
1 1366 -1367 0
1 1299 -1363 0
1 -1368 1289 0
1 -1369 -1356 0
1 -1369 -1305 0
1 -1309 1370 0
1 1371 1372 0
1 -1371 -1307 0
1 1371 -1309 0
1 -1373 -1309 0
1 1370 1368 0
1 -1307 1374 0
1 -1307 1375 0
1 -1376 1373 0
1 1376 -1377 0
1 1376 -1375 0
1 -1317 -1373 0
1 -1317 1378 0
1 -1379 1310 0
1 -1379 -1378 0
1 -1375 1369 0
1 -1380 1307 0
1 -1374 1372 0
1 -1374 1309 0
1 1381 1382 0
1 -1381 -1318 0
1 -1322 -1381 0
1 1383 1384 0
1 -1384 1385 0
1 -1382 -1322 0
1 1386 -1382 0
1 -1386 -1381 0
1 1385 1383 0
1 -1385 1384 0
1 -1387 -1308 0
1 -1346 -1388 0
1 -1346 -1343 0
1 -1389 -1390 0
1 1391 -1352 0
1 1391 1346 0
1 -1388 -1392 0
1 -1388 1346 0
1 1393 -1388 0
1 -1393 1332 0
1 1393 1394 0
1 -1395 1260 0
1 1395 -1391 0
1 -1342 -1396 0
1 1397 1351 0
1 1398 1338 0
1 1398 -1394 0
1 1399 1400 0
1 -1401 -1361 0
1 -1401 -1344 0
1 -1351 1359 0
1 -1402 1396 0
1 -1402 1403 0
1 -1404 -1405 0
1 1404 -1406 0
1 -1404 1357 0
1 -1407 1408 0
1 -1407 1402 0
1 -1407 -1409 0
1 -1410 -1411 0
1 -1412 -1413 0
1 1412 -1414 0
1 -1412 -1357 0
1 1415 1406 0
1 1353 -1357 0
1 -1416 -1307 0
1 1414 1417 0
1 -1414 -1418 0
1 1413 -1365 0
1 -1417 1367 0
1 1417 1414 0
1 1419 -1420 0
1 -1419 -1414 0
1 1360 -1421 0
1 -1372 -1422 0
1 -1372 1423 0
1 1372 -1365 0
1 -1424 -1372 0
1 -1424 1422 0
1 1424 -1365 0
1 1424 1425 0
1 -1424 -1426 0
1 1424 -1377 0
1 -1427 -1428 0
1 -1422 -1429 0
1 1422 1424 0
1 1430 1431 0
1 1430 -1410 0
1 1430 -1400 0
1 1411 -1432 0
1 -1433 1434 0
1 -1433 1435 0
1 -1434 -1436 0
1 -1431 -1436 0
1 1392 -1388 0
1 -1408 -1404 0
1 -1408 1415 0
1 -1437 1420 0
1 1436 1438 0
1 -1436 1439 0
1 -1435 1396 0
1 1435 1423 0
1 1432 -1435 0
1 -1423 -1440 0
1 1423 -1353 0
1 -1425 -1432 0
1 -1441 -1442 0
1 -1441 1439 0
1 -1421 -1435 0
1 -1421 1405 0
1 -1440 1437 0
1 1439 1423 0
1 -1439 -1437 0
